sat
(
  (define-fun C5_VM3 () Int
    1)
  (define-fun ProcProv6 () Int
    1800)
  (define-fun VM3Type () Int
    1)
  (define-fun MemProv5 () Int
    28350)
  (define-fun VM4Type () Int
    1)
  (define-fun C1_VM6 () Int
    0)
  (define-fun ProcProv4 () Int
    900)
  (define-fun C5_VM6 () Int
    1)
  (define-fun StorageProv6 () Int
    69000)
  (define-fun C3_VM5 () Int
    0)
  (define-fun C3_VM4 () Int
    0)
  (define-fun C4_VM3 () Int
    0)
  (define-fun C2_VM6 () Int
    0)
  (define-fun VM6Type () Int
    7)
  (define-fun C2_VM5 () Int
    0)
  (define-fun C3_VM1 () Int
    0)
  (define-fun StorageProv1 () Int
    69000)
  (define-fun C4_VM5 () Int
    1)
  (define-fun StorageProv2 () Int
    50999)
  (define-fun VM5Type () Int
    24)
  (define-fun PriceProv4 () Int
    120)
  (define-fun MemProv3 () Int
    1350)
  (define-fun C5_VM4 () Int
    1)
  (define-fun C5_VM2 () Int
    0)
  (define-fun C3_VM6 () Int
    1)
  (define-fun PriceProv3 () Int
    120)
  (define-fun C4_VM2 () Int
    0)
  (define-fun VM1Type () Int
    7)
  (define-fun PriceProv6 () Int
    240)
  (define-fun C4_VM6 () Int
    0)
  (define-fun C3_VM2 () Int
    0)
  (define-fun C5_VM1 () Int
    0)
  (define-fun C2_VM1 () Int
    0)
  (define-fun C3_VM3 () Int
    0)
  (define-fun C2_VM3 () Int
    1)
  (define-fun VM2Type () Int
    0)
  (define-fun C2_VM2 () Int
    0)
  (define-fun C4_VM1 () Int
    0)
  (define-fun C2_VM4 () Int
    1)
  (define-fun StorageProv5 () Int
    87000)
  (define-fun C1_VM2 () Int
    0)
  (define-fun MemProv2 () Int
    1351)
  (define-fun ProcProv1 () Int
    1800)
  (define-fun MemProv6 () Int
    3150)
  (define-fun PriceProv5 () Int
    1680)
  (define-fun C4_VM4 () Int
    0)
  (define-fun MemProv1 () Int
    3150)
  (define-fun ProcProv5 () Int
    3600)
  (define-fun StorageProv3 () Int
    42000)
  (define-fun ProcProv3 () Int
    900)
  (define-fun ProcProv2 () Int
    7201)
  (define-fun C1_VM4 () Int
    0)
  (define-fun StorageProv4 () Int
    42000)
  (define-fun C1_VM3 () Int
    0)
  (define-fun C1_VM5 () Int
    0)
  (define-fun PriceProv2 () Int
    0)
  (define-fun PriceProv1 () Int
    240)
  (define-fun C5_VM5 () Int
    0)
  (define-fun MemProv4 () Int
    1350)
  (define-fun C1_VM1 () Int
    1)
)
(objectives
 ((+ 0 PriceProv1 PriceProv2 PriceProv3 PriceProv4 PriceProv5 PriceProv6) 2400)
)
(:added-eqs                   102291
 :arith-eq-adapter            4544
 :arith-bound-propagations-lp 95831
 :arith-conflicts             195
 :arith-diseq                 126278
 :arith-fixed-eqs             715
 :arith-lower                 188931
 :arith-make-feasible         13596
 :arith-max-columns           120
 :arith-max-rows              20
 :arith-upper                 103491
 :binary-propagations         586781
 :conflicts                   3469
 :decisions                   25946
 :del-clause                  5999
 :final-checks                21
 :max-memory                  41.92
 :memory                      41.92
 :minimized-lits              20317
 :mk-bool-var                 10486
 :mk-clause                   7101
 :mk-clause-binary            2929
 :num-allocs                  12549198
 :num-checks                  18
 :pb-conflicts                847
 :pb-predicates               318
 :pb-propagations             4554
 :pb-resolves                 837
 :propagations                995654
 :restarts                    28
 :rlimit-count                5222232
 :solve-eqs-elim-vars         1
 :solve-eqs-steps             10
 :time                        0.25
 :total-time                  0.26)
